cons/1rconnector.cnf
c converted from /home/hnli/xoodyak-collision/cons/1rconnector.anf
c var mapping: DIMACS v = X(index) + 1
p cnf 128 128
83 -92 0
-83 92 0
84 -93 0
-84 93 0
85 -94 0
-85 94 0
86 -95 0
-86 95 0
87 -96 0
-87 96 0
65 -88 0
-65 88 0
66 -89 0
-66 89 0
67 -90 0
-67 90 0
68 -91 0
-68 91 0
69 -92 0
-69 92 0
70 -93 0
-70 93 0
71 -94 0
-71 94 0
72 -95 0
-72 95 0
73 -96 0
-73 96 0
65 -74 0
-65 74 0
66 -75 0
-66 75 0
67 -76 0
-67 76 0
68 -77 0
-68 77 0
69 -78 0
-69 78 0
70 -79 0
-70 79 0
71 -80 0
-71 80 0
72 -81 0
-72 81 0
73 -82 0
-73 82 0
74 -83 0
-74 83 0
75 -84 0
-75 84 0
76 -85 0
-76 85 0
77 -86 0
-77 86 0
78 -87 0
-78 87 0
79 -88 0
-79 88 0
80 -89 0
-80 89 0
81 -90 0
-81 90 0
82 -91 0
-82 91 0
104 113 0
-104 -113 0
105 114 0
-105 -114 0
106 115 0
-106 -115 0
107 116 0
-107 -116 0
108 117 0
-108 -117 0
109 118 0
-109 -118 0
110 119 0
-110 -119 0
111 120 0
-111 -120 0
112 -121 0
-112 121 0
113 122 0
-113 -122 0
114 123 0
-114 -123 0
115 124 0
-115 -124 0
116 125 0
-116 -125 0
117 126 0
-117 -126 0
118 127 0
-118 -127 0
119 128 0
-119 -128 0
97 120 0
-97 -120 0
98 -121 0
-98 121 0
99 122 0
-99 -122 0
100 123 0
-100 -123 0
101 124 0
-101 -124 0
102 125 0
-102 -125 0
103 126 0
-103 -126 0
104 127 0
-104 -127 0
105 128 0
-105 -128 0
97 106 0
-97 -106 0
98 107 0
-98 -107 0
99 108 0
-99 -108 0
100 109 0
-100 -109 0
101 110 0
-101 -110 0
102 111 0
-102 -111 0
103 112 0
-103 -112 0
